; Formal verification proof - input completeness of test_netlist11x11.txt
(set-logic QF_BV)

; Inputs: x0, x1, x2, x3, x4, x5, x6, x7, x8, x9, x10, y0, y1, y2, y3, y4, y5, y6, y7, y8, y9, y10
(declare-fun x0 () (_ BitVec 1))
(declare-fun x1 () (_ BitVec 1))
(declare-fun x2 () (_ BitVec 1))
(declare-fun x3 () (_ BitVec 1))
(declare-fun x4 () (_ BitVec 1))
(declare-fun x5 () (_ BitVec 1))
(declare-fun x6 () (_ BitVec 1))
(declare-fun x7 () (_ BitVec 1))
(declare-fun x8 () (_ BitVec 1))
(declare-fun x9 () (_ BitVec 1))
(declare-fun x10 () (_ BitVec 1))
(declare-fun y0 () (_ BitVec 1))
(declare-fun y1 () (_ BitVec 1))
(declare-fun y2 () (_ BitVec 1))
(declare-fun y3 () (_ BitVec 1))
(declare-fun y4 () (_ BitVec 1))
(declare-fun y5 () (_ BitVec 1))
(declare-fun y6 () (_ BitVec 1))
(declare-fun y7 () (_ BitVec 1))
(declare-fun y8 () (_ BitVec 1))
(declare-fun y9 () (_ BitVec 1))
(declare-fun y10 () (_ BitVec 1))

; SAT/UNSAT assertion for test_netlist11x11.txt
(assert
	(not		
		(let
			(
				(p0 (bvand x0 y0))
				(t0 (bvand x1 y0))
				(t1 (bvand x0 y1))
				(t2 (bvand x2 y0))
				(t3 (bvand x1 y1))
				(t7 (bvand x3 y0))
				(t8 (bvand x2 y1))
				(t12 (bvand x4 y0))
				(t13 (bvand x3 y1))
				(t17 (bvand x5 y0))
				(t18 (bvand x4 y1))
				(t22 (bvand x6 y0))
				(t23 (bvand x5 y1))
				(t27 (bvand x7 y0))
				(t28 (bvand x6 y1))
				(t32 (bvand x8 y0))
				(t33 (bvand x7 y1))
				(t37 (bvand x9 y0))
				(t38 (bvand x8 y1))
				(t42 (bvand x10 y0))
				(t43 (bvand x9 y1))
				(t47 (bvand x10 y1))
				(t48 (bvand x0 y2))
				(t49 (bvand x1 y2))
				(t53 (bvand x2 y2))
				(t57 (bvand x3 y2))
				(t61 (bvand x4 y2))
				(t65 (bvand x5 y2))
				(t69 (bvand x6 y2))
				(t73 (bvand x7 y2))
				(t77 (bvand x8 y2))
				(t81 (bvand x9 y2))
				(t85 (bvand x10 y2))
				(t89 (bvand x0 y3))
				(t90 (bvand x1 y3))
				(t94 (bvand x2 y3))
				(t98 (bvand x3 y3))
				(t102 (bvand x4 y3))
				(t106 (bvand x5 y3))
				(t110 (bvand x6 y3))
				(t114 (bvand x7 y3))
				(t118 (bvand x8 y3))
				(t122 (bvand x9 y3))
				(t126 (bvand x10 y3))
				(t130 (bvand x0 y4))
				(t131 (bvand x1 y4))
				(t135 (bvand x2 y4))
				(t139 (bvand x3 y4))
				(t143 (bvand x4 y4))
				(t147 (bvand x5 y4))
				(t151 (bvand x6 y4))
				(t155 (bvand x7 y4))
				(t159 (bvand x8 y4))
				(t163 (bvand x9 y4))
				(t167 (bvand x10 y4))
				(t171 (bvand x0 y5))
				(t172 (bvand x1 y5))
				(t176 (bvand x2 y5))
				(t180 (bvand x3 y5))
				(t184 (bvand x4 y5))
				(t188 (bvand x5 y5))
				(t192 (bvand x6 y5))
				(t196 (bvand x7 y5))
				(t200 (bvand x8 y5))
				(t204 (bvand x9 y5))
				(t208 (bvand x10 y5))
				(t212 (bvand x0 y6))
				(t213 (bvand x1 y6))
				(t217 (bvand x2 y6))
				(t221 (bvand x3 y6))
				(t225 (bvand x4 y6))
				(t229 (bvand x5 y6))
				(t233 (bvand x6 y6))
				(t237 (bvand x7 y6))
				(t241 (bvand x8 y6))
				(t245 (bvand x9 y6))
				(t249 (bvand x10 y6))
				(t253 (bvand x0 y7))
				(t254 (bvand x1 y7))
				(t258 (bvand x2 y7))
				(t262 (bvand x3 y7))
				(t266 (bvand x4 y7))
				(t270 (bvand x5 y7))
				(t274 (bvand x6 y7))
				(t278 (bvand x7 y7))
				(t282 (bvand x8 y7))
				(t286 (bvand x9 y7))
				(t290 (bvand x10 y7))
				(t294 (bvand x0 y8))
				(t295 (bvand x1 y8))
				(t299 (bvand x2 y8))
				(t303 (bvand x3 y8))
				(t307 (bvand x4 y8))
				(t311 (bvand x5 y8))
				(t315 (bvand x6 y8))
				(t319 (bvand x7 y8))
				(t323 (bvand x8 y8))
				(t327 (bvand x9 y8))
				(t331 (bvand x10 y8))
				(t335 (bvand x0 y9))
				(t336 (bvand x1 y9))
				(t340 (bvand x2 y9))
				(t344 (bvand x3 y9))
				(t348 (bvand x4 y9))
				(t352 (bvand x5 y9))
				(t356 (bvand x6 y9))
				(t360 (bvand x7 y9))
				(t364 (bvand x8 y9))
				(t368 (bvand x9 y9))
				(t372 (bvand x10 y9))
				(t376 (bvand x0 y10))
				(t377 (bvand x1 y10))
				(t381 (bvand x2 y10))
				(t385 (bvand x3 y10))
				(t389 (bvand x4 y10))
				(t393 (bvand x5 y10))
				(t397 (bvand x6 y10))
				(t401 (bvand x7 y10))
				(t405 (bvand x8 y10))
				(t409 (bvand x9 y10))
				(t413 (bvand x10 y10))
			)		
		(let
			(
				(p1 (bvxor t0 t1))
				(c0 (bvand t0 t1))
				(t4 (bvxor t2 t3))
				(t6 (bvand t2 t3))
				(t9 (bvxor t7 t8))
				(t10 (bvand t7 t8))
				(t14 (bvxor t12 t13))
				(t15 (bvand t12 t13))
				(t19 (bvxor t17 t18))
				(t20 (bvand t17 t18))
				(t24 (bvxor t22 t23))
				(t25 (bvand t22 t23))
				(t29 (bvxor t27 t28))
				(t30 (bvand t27 t28))
				(t34 (bvxor t32 t33))
				(t35 (bvand t32 t33))
				(t39 (bvxor t37 t38))
				(t40 (bvand t37 t38))
				(t44 (bvxor t42 t43))
				(t45 (bvand t42 t43))
			)		
		(let
			(
				(s1 (bvxor c0 t4))
				(t5 (bvand c0 t4))
			)		
		(let
			(
				(c1 (bvor t6 t5))
				(p2 (bvxor s1 t48))
				(c11 (bvand s1 t48))
			)		
		(let
			(
				(s2 (bvxor c1 t9))
				(t11 (bvand c1 t9))
			)		
		(let
			(
				(c2 (bvor t10 t11))
				(t50 (bvxor s2 t49))
				(t51 (bvand s2 t49))
			)		
		(let
			(
				(s3 (bvxor c2 t14))
				(t16 (bvand c2 t14))
				(s11 (bvxor c11 t50))
				(t52 (bvand c11 t50))
			)		
		(let
			(
				(c3 (bvor t15 t16))
				(c12 (bvor t52 t51))
				(t54 (bvxor s3 t53))
				(t55 (bvand s3 t53))
				(p3 (bvxor s11 t89))
				(c22 (bvand s11 t89))
			)		
		(let
			(
				(s4 (bvxor c3 t19))
				(t21 (bvand c3 t19))
				(s12 (bvxor c12 t54))
				(t56 (bvand c12 t54))
			)		
		(let
			(
				(c4 (bvor t21 t20))
				(c13 (bvor t56 t55))
				(t58 (bvxor s4 t57))
				(t59 (bvand s4 t57))
				(t91 (bvxor s12 t90))
				(t92 (bvand s12 t90))
			)		
		(let
			(
				(s5 (bvxor c4 t24))
				(t26 (bvand c4 t24))
				(s13 (bvxor c13 t58))
				(t60 (bvand c13 t58))
				(s21 (bvxor c22 t91))
				(t93 (bvand c22 t91))
			)		
		(let
			(
				(c5 (bvor t25 t26))
				(c14 (bvor t60 t59))
				(t62 (bvxor s5 t61))
				(t63 (bvand s5 t61))
				(c23 (bvor t93 t92))
				(t95 (bvxor s13 t94))
				(t96 (bvand s13 t94))
				(p4 (bvxor s21 t130))
				(c33 (bvand s21 t130))
			)		
		(let
			(
				(s6 (bvxor c5 t29))
				(t31 (bvand c5 t29))
				(s14 (bvxor c14 t62))
				(t64 (bvand c14 t62))
				(s22 (bvxor c23 t95))
				(t97 (bvand c23 t95))
			)		
		(let
			(
				(c6 (bvor t30 t31))
				(c15 (bvor t64 t63))
				(t66 (bvxor s6 t65))
				(t67 (bvand s6 t65))
				(c24 (bvor t97 t96))
				(t99 (bvxor s14 t98))
				(t100 (bvand s14 t98))
				(t132 (bvxor s22 t131))
				(t133 (bvand s22 t131))
			)		
		(let
			(
				(s7 (bvxor c6 t34))
				(t36 (bvand c6 t34))
				(s15 (bvxor c15 t66))
				(t68 (bvand c15 t66))
				(s23 (bvxor c24 t99))
				(t101 (bvand c24 t99))
				(s31 (bvxor c33 t132))
				(t134 (bvand c33 t132))
			)		
		(let
			(
				(c7 (bvor t35 t36))
				(c16 (bvor t68 t67))
				(t70 (bvxor s7 t69))
				(t71 (bvand s7 t69))
				(c25 (bvor t101 t100))
				(t103 (bvxor s15 t102))
				(t104 (bvand s15 t102))
				(c34 (bvor t134 t133))
				(t136 (bvxor s23 t135))
				(t137 (bvand s23 t135))
				(p5 (bvxor s31 t171))
				(c44 (bvand s31 t171))
			)		
		(let
			(
				(s8 (bvxor c7 t39))
				(t41 (bvand c7 t39))
				(s16 (bvxor c16 t70))
				(t72 (bvand c16 t70))
				(s24 (bvxor c25 t103))
				(t105 (bvand c25 t103))
				(s32 (bvxor c34 t136))
				(t138 (bvand c34 t136))
			)		
		(let
			(
				(c8 (bvor t41 t40))
				(c17 (bvor t72 t71))
				(t74 (bvxor s8 t73))
				(t75 (bvand s8 t73))
				(c26 (bvor t105 t104))
				(t107 (bvxor s16 t106))
				(t108 (bvand s16 t106))
				(c35 (bvor t138 t137))
				(t140 (bvxor s24 t139))
				(t141 (bvand s24 t139))
				(t173 (bvxor s32 t172))
				(t174 (bvand s32 t172))
			)		
		(let
			(
				(s9 (bvxor c8 t44))
				(t46 (bvand c8 t44))
				(s17 (bvxor c17 t74))
				(t76 (bvand c17 t74))
				(s25 (bvxor c26 t107))
				(t109 (bvand c26 t107))
				(s33 (bvxor c35 t140))
				(t142 (bvand c35 t140))
				(s41 (bvxor c44 t173))
				(t175 (bvand c44 t173))
			)		
		(let
			(
				(c9 (bvor t46 t45))
				(c18 (bvor t76 t75))
				(t78 (bvxor s9 t77))
				(t79 (bvand s9 t77))
				(c27 (bvor t109 t108))
				(t111 (bvxor s17 t110))
				(t112 (bvand s17 t110))
				(c36 (bvor t142 t141))
				(t144 (bvxor s25 t143))
				(t145 (bvand s25 t143))
				(c45 (bvor t175 t174))
				(t177 (bvxor s33 t176))
				(t178 (bvand s33 t176))
				(p6 (bvxor s41 t212))
				(c55 (bvand s41 t212))
			)		
		(let
			(
				(s10 (bvxor c9 t47))
				(c10 (bvand c9 t47))
				(s18 (bvxor c18 t78))
				(t80 (bvand c18 t78))
				(s26 (bvxor c27 t111))
				(t113 (bvand c27 t111))
				(s34 (bvxor c36 t144))
				(t146 (bvand c36 t144))
				(s42 (bvxor c45 t177))
				(t179 (bvand c45 t177))
			)		
		(let
			(
				(c19 (bvor t80 t79))
				(t82 (bvxor s10 t81))
				(t83 (bvand s10 t81))
				(c28 (bvor t113 t112))
				(t115 (bvxor s18 t114))
				(t116 (bvand s18 t114))
				(c37 (bvor t146 t145))
				(t148 (bvxor s26 t147))
				(t149 (bvand s26 t147))
				(c46 (bvor t179 t178))
				(t181 (bvxor s34 t180))
				(t182 (bvand s34 t180))
				(t214 (bvxor s42 t213))
				(t215 (bvand s42 t213))
			)		
		(let
			(
				(s19 (bvxor c19 t82))
				(t84 (bvand c19 t82))
				(s27 (bvxor c28 t115))
				(t117 (bvand c28 t115))
				(s35 (bvxor c37 t148))
				(t150 (bvand c37 t148))
				(s43 (bvxor c46 t181))
				(t183 (bvand c46 t181))
				(s51 (bvxor c55 t214))
				(t216 (bvand c55 t214))
			)		
		(let
			(
				(c20 (bvor t84 t83))
				(t86 (bvxor c10 t85))
				(t87 (bvand c10 t85))
				(c29 (bvor t117 t116))
				(t119 (bvxor s19 t118))
				(t120 (bvand s19 t118))
				(c38 (bvor t150 t149))
				(t152 (bvxor s27 t151))
				(t153 (bvand s27 t151))
				(c47 (bvor t183 t182))
				(t185 (bvxor s35 t184))
				(t186 (bvand s35 t184))
				(c56 (bvor t216 t215))
				(t218 (bvxor s43 t217))
				(t219 (bvand s43 t217))
				(p7 (bvxor s51 t253))
				(c66 (bvand s51 t253))
			)		
		(let
			(
				(s20 (bvxor c20 t86))
				(t88 (bvand c20 t86))
				(s28 (bvxor c29 t119))
				(t121 (bvand c29 t119))
				(s36 (bvxor c38 t152))
				(t154 (bvand c38 t152))
				(s44 (bvxor c47 t185))
				(t187 (bvand c47 t185))
				(s52 (bvxor c56 t218))
				(t220 (bvand c56 t218))
			)		
		(let
			(
				(c21 (bvor t88 t87))
				(c30 (bvor t121 t120))
				(t123 (bvxor s20 t122))
				(t124 (bvand s20 t122))
				(c39 (bvor t154 t153))
				(t156 (bvxor s28 t155))
				(t157 (bvand s28 t155))
				(c48 (bvor t187 t186))
				(t189 (bvxor s36 t188))
				(t190 (bvand s36 t188))
				(c57 (bvor t220 t219))
				(t222 (bvxor s44 t221))
				(t223 (bvand s44 t221))
				(t255 (bvxor s52 t254))
				(t256 (bvand s52 t254))
			)		
		(let
			(
				(s29 (bvxor c30 t123))
				(t125 (bvand c30 t123))
				(t127 (bvxor c21 t126))
				(t128 (bvand c21 t126))
				(s37 (bvxor c39 t156))
				(t158 (bvand c39 t156))
				(s45 (bvxor c48 t189))
				(t191 (bvand c48 t189))
				(s53 (bvxor c57 t222))
				(t224 (bvand c57 t222))
				(s61 (bvxor c66 t255))
				(t257 (bvand c66 t255))
			)		
		(let
			(
				(c31 (bvor t125 t124))
				(c40 (bvor t158 t157))
				(t160 (bvxor s29 t159))
				(t161 (bvand s29 t159))
				(c49 (bvor t191 t190))
				(t193 (bvxor s37 t192))
				(t194 (bvand s37 t192))
				(c58 (bvor t224 t223))
				(t226 (bvxor s45 t225))
				(t227 (bvand s45 t225))
				(c67 (bvor t257 t256))
				(t259 (bvxor s53 t258))
				(t260 (bvand s53 t258))
				(p8 (bvxor s61 t294))
				(c77 (bvand s61 t294))
			)		
		(let
			(
				(s30 (bvxor c31 t127))
				(t129 (bvand c31 t127))
				(s38 (bvxor c40 t160))
				(t162 (bvand c40 t160))
				(s46 (bvxor c49 t193))
				(t195 (bvand c49 t193))
				(s54 (bvxor c58 t226))
				(t228 (bvand c58 t226))
				(s62 (bvxor c67 t259))
				(t261 (bvand c67 t259))
			)		
		(let
			(
				(c32 (bvor t129 t128))
				(c41 (bvor t162 t161))
				(t164 (bvxor s30 t163))
				(t165 (bvand s30 t163))
				(c50 (bvor t195 t194))
				(t197 (bvxor s38 t196))
				(t198 (bvand s38 t196))
				(c59 (bvor t228 t227))
				(t230 (bvxor s46 t229))
				(t231 (bvand s46 t229))
				(c68 (bvor t261 t260))
				(t263 (bvxor s54 t262))
				(t264 (bvand s54 t262))
				(t296 (bvxor s62 t295))
				(t297 (bvand s62 t295))
			)		
		(let
			(
				(s39 (bvxor c41 t164))
				(t166 (bvand c41 t164))
				(t168 (bvxor c32 t167))
				(t169 (bvand c32 t167))
				(s47 (bvxor c50 t197))
				(t199 (bvand c50 t197))
				(s55 (bvxor c59 t230))
				(t232 (bvand c59 t230))
				(s63 (bvxor c68 t263))
				(t265 (bvand c68 t263))
				(s71 (bvxor c77 t296))
				(t298 (bvand c77 t296))
			)		
		(let
			(
				(c42 (bvor t166 t165))
				(c51 (bvor t199 t198))
				(t201 (bvxor s39 t200))
				(t202 (bvand s39 t200))
				(c60 (bvor t232 t231))
				(t234 (bvxor s47 t233))
				(t235 (bvand s47 t233))
				(c69 (bvor t265 t264))
				(t267 (bvxor s55 t266))
				(t268 (bvand s55 t266))
				(c78 (bvor t298 t297))
				(t300 (bvxor s63 t299))
				(t301 (bvand s63 t299))
				(p9 (bvxor s71 t335))
				(c88 (bvand s71 t335))
			)		
		(let
			(
				(s40 (bvxor c42 t168))
				(t170 (bvand c42 t168))
				(s48 (bvxor c51 t201))
				(t203 (bvand c51 t201))
				(s56 (bvxor c60 t234))
				(t236 (bvand c60 t234))
				(s64 (bvxor c69 t267))
				(t269 (bvand c69 t267))
				(s72 (bvxor c78 t300))
				(t302 (bvand c78 t300))
			)		
		(let
			(
				(c43 (bvor t170 t169))
				(c52 (bvor t203 t202))
				(t205 (bvxor s40 t204))
				(t206 (bvand s40 t204))
				(c61 (bvor t236 t235))
				(t238 (bvxor s48 t237))
				(t239 (bvand s48 t237))
				(c70 (bvor t269 t268))
				(t271 (bvxor s56 t270))
				(t272 (bvand s56 t270))
				(c79 (bvor t302 t301))
				(t304 (bvxor s64 t303))
				(t305 (bvand s64 t303))
				(t337 (bvxor s72 t336))
				(t338 (bvand s72 t336))
			)		
		(let
			(
				(s49 (bvxor c52 t205))
				(t207 (bvand c52 t205))
				(t209 (bvxor c43 t208))
				(t210 (bvand c43 t208))
				(s57 (bvxor c61 t238))
				(t240 (bvand c61 t238))
				(s65 (bvxor c70 t271))
				(t273 (bvand c70 t271))
				(s73 (bvxor c79 t304))
				(t306 (bvand c79 t304))
				(s81 (bvxor c88 t337))
				(t339 (bvand c88 t337))
			)		
		(let
			(
				(c53 (bvor t207 t206))
				(c62 (bvor t240 t239))
				(t242 (bvxor s49 t241))
				(t243 (bvand s49 t241))
				(c71 (bvor t273 t272))
				(t275 (bvxor s57 t274))
				(t276 (bvand s57 t274))
				(c80 (bvor t306 t305))
				(t308 (bvxor s65 t307))
				(t309 (bvand s65 t307))
				(c89 (bvor t339 t338))
				(t341 (bvxor s73 t340))
				(t342 (bvand s73 t340))
				(p10 (bvxor s81 t376))
				(c99 (bvand s81 t376))
			)		
		(let
			(
				(s50 (bvxor c53 t209))
				(t211 (bvand c53 t209))
				(s58 (bvxor c62 t242))
				(t244 (bvand c62 t242))
				(s66 (bvxor c71 t275))
				(t277 (bvand c71 t275))
				(s74 (bvxor c80 t308))
				(t310 (bvand c80 t308))
				(s82 (bvxor c89 t341))
				(t343 (bvand c89 t341))
			)		
		(let
			(
				(c54 (bvor t211 t210))
				(c63 (bvor t244 t243))
				(t246 (bvxor s50 t245))
				(t247 (bvand s50 t245))
				(c72 (bvor t277 t276))
				(t279 (bvxor s58 t278))
				(t280 (bvand s58 t278))
				(c81 (bvor t310 t309))
				(t312 (bvxor s66 t311))
				(t313 (bvand s66 t311))
				(c90 (bvor t343 t342))
				(t345 (bvxor s74 t344))
				(t346 (bvand s74 t344))
				(t378 (bvxor s82 t377))
				(t379 (bvand s82 t377))
			)		
		(let
			(
				(s59 (bvxor c63 t246))
				(t248 (bvand c63 t246))
				(t250 (bvxor c54 t249))
				(t251 (bvand c54 t249))
				(s67 (bvxor c72 t279))
				(t281 (bvand c72 t279))
				(s75 (bvxor c81 t312))
				(t314 (bvand c81 t312))
				(s83 (bvxor c90 t345))
				(t347 (bvand c90 t345))
				(p11 (bvxor c99 t378))
				(t380 (bvand c99 t378))
			)		
		(let
			(
				(c64 (bvor t248 t247))
				(c73 (bvor t281 t280))
				(t283 (bvxor s59 t282))
				(t284 (bvand s59 t282))
				(c82 (bvor t314 t313))
				(t316 (bvxor s67 t315))
				(t317 (bvand s67 t315))
				(c91 (bvor t347 t346))
				(t349 (bvxor s75 t348))
				(t350 (bvand s75 t348))
				(c100 (bvor t380 t379))
				(t382 (bvxor s83 t381))
				(t383 (bvand s83 t381))
			)		
		(let
			(
				(s60 (bvxor c64 t250))
				(t252 (bvand c64 t250))
				(s68 (bvxor c73 t283))
				(t285 (bvand c73 t283))
				(s76 (bvxor c82 t316))
				(t318 (bvand c82 t316))
				(s84 (bvxor c91 t349))
				(t351 (bvand c91 t349))
				(p12 (bvxor c100 t382))
				(t384 (bvand c100 t382))
			)		
		(let
			(
				(c65 (bvor t252 t251))
				(c74 (bvor t285 t284))
				(t287 (bvxor s60 t286))
				(t288 (bvand s60 t286))
				(c83 (bvor t318 t317))
				(t320 (bvxor s68 t319))
				(t321 (bvand s68 t319))
				(c92 (bvor t351 t350))
				(t353 (bvxor s76 t352))
				(t354 (bvand s76 t352))
				(c101 (bvor t384 t383))
				(t386 (bvxor s84 t385))
				(t387 (bvand s84 t385))
			)		
		(let
			(
				(s69 (bvxor c74 t287))
				(t289 (bvand c74 t287))
				(t291 (bvxor c65 t290))
				(t292 (bvand c65 t290))
				(s77 (bvxor c83 t320))
				(t322 (bvand c83 t320))
				(s85 (bvxor c92 t353))
				(t355 (bvand c92 t353))
				(p13 (bvxor c101 t386))
				(t388 (bvand c101 t386))
			)		
		(let
			(
				(c75 (bvor t289 t288))
				(c84 (bvor t322 t321))
				(t324 (bvxor s69 t323))
				(t325 (bvand s69 t323))
				(c93 (bvor t355 t354))
				(t357 (bvxor s77 t356))
				(t358 (bvand s77 t356))
				(c102 (bvor t388 t387))
				(t390 (bvxor s85 t389))
				(t391 (bvand s85 t389))
			)		
		(let
			(
				(s70 (bvxor c75 t291))
				(t293 (bvand c75 t291))
				(s78 (bvxor c84 t324))
				(t326 (bvand c84 t324))
				(s86 (bvxor c93 t357))
				(t359 (bvand c93 t357))
				(p14 (bvxor c102 t390))
				(t392 (bvand c102 t390))
			)		
		(let
			(
				(c76 (bvor t293 t292))
				(c85 (bvor t326 t325))
				(t328 (bvxor s70 t327))
				(t329 (bvand s70 t327))
				(c94 (bvor t359 t358))
				(t361 (bvxor s78 t360))
				(t362 (bvand s78 t360))
				(c103 (bvor t392 t391))
				(t394 (bvxor s86 t393))
				(t395 (bvand s86 t393))
			)		
		(let
			(
				(s79 (bvxor c85 t328))
				(t330 (bvand c85 t328))
				(t332 (bvxor c76 t331))
				(t333 (bvand c76 t331))
				(s87 (bvxor c94 t361))
				(t363 (bvand c94 t361))
				(p15 (bvxor c103 t394))
				(t396 (bvand c103 t394))
			)		
		(let
			(
				(c86 (bvor t330 t329))
				(c95 (bvor t363 t362))
				(t365 (bvxor s79 t364))
				(t366 (bvand s79 t364))
				(c104 (bvor t396 t395))
				(t398 (bvxor s87 t397))
				(t399 (bvand s87 t397))
			)		
		(let
			(
				(s80 (bvxor c86 t332))
				(t334 (bvand c86 t332))
				(s88 (bvxor c95 t365))
				(t367 (bvand c95 t365))
				(p16 (bvxor c104 t398))
				(t400 (bvand c104 t398))
			)		
		(let
			(
				(c87 (bvor t334 t333))
				(c96 (bvor t367 t366))
				(t369 (bvxor s80 t368))
				(t370 (bvand s80 t368))
				(c105 (bvor t400 t399))
				(t402 (bvxor s88 t401))
				(t403 (bvand s88 t401))
			)		
		(let
			(
				(s89 (bvxor c96 t369))
				(t371 (bvand c96 t369))
				(t373 (bvxor c87 t372))
				(t374 (bvand c87 t372))
				(p17 (bvxor c105 t402))
				(t404 (bvand c105 t402))
			)		
		(let
			(
				(c97 (bvor t371 t370))
				(c106 (bvor t404 t403))
				(t406 (bvxor s89 t405))
				(t407 (bvand s89 t405))
			)		
		(let
			(
				(s90 (bvxor c97 t373))
				(t375 (bvand c97 t373))
				(p18 (bvxor c106 t406))
				(t408 (bvand c106 t406))
			)		
		(let
			(
				(c98 (bvor t375 t374))
				(c107 (bvor t408 t407))
				(t410 (bvxor s90 t409))
				(t411 (bvand s90 t409))
			)		
		(let
			(
				(p19 (bvxor c107 t410))
				(t412 (bvand c107 t410))
				(t414 (bvxor c98 t413))
				(t415 (bvand c98 t413))
			)		
		(let
			(
				(c108 (bvor t412 t411))
			)		
		(let
			(
				(p20 (bvxor c108 t414))
				(t416 (bvand c108 t414))
			)		
		(let
			(
				(p21 (bvor t416 t415))
			)
		(let
			(
				(x_t (concat (_ bv0 11) x10 x9 x8 x7 x6 x5 x4 x3 x2 x1 x0))
				(y_t (concat (_ bv0 11) y10 y9 y8 y7 y6 y5 y4 y3 y2 y1 y0))
			)
		(let 
			(
				(out_pchb (concat p21 p20 p19 p18 p17 p16 p15 p14 p13 p12 p11 p10 p9 p8 p7 p6 p5 p4 p3 p2 p1 p0))
				(out_sync (bvmul x_t y_t))
				
			)
		(= out_pchb out_sync)))	)))))))))) )))))))))) )))))))))) )))))))))) )))))))))) ))))))))
	)	
)
(check-sat)
(get-model)
